Cost: 491
0-58-39-55-25-32-40-17-0
0-2-62-22-64-61-28-30-0
0-29-37-60-57-54-59-53-0
0-51-24-56-23-63-33-6-0
0-4-27-52-8-46-34-0
0-26-0
Cost: 491
0-26-0
0-29-37-60-57-54-59-53-0
0-6-33-63-23-56-24-51-0
0-30-28-61-64-22-62-2-0
0-4-27-52-8-46-34-0
0-58-39-55-25-32-40-17-0
Cost: 491
0-58-39-55-25-32-40-17-0
0-2-62-22-64-61-28-30-0
0-29-37-60-57-54-59-53-0
0-51-24-56-23-63-33-6-0
0-4-27-52-8-46-34-0
0-26-0
Cost: 491
0-53-59-54-57-60-37-29-0
0-17-40-32-25-55-39-58-0
0-26-0
0-2-62-22-64-61-28-30-0
0-51-24-56-23-63-33-6-0
0-4-27-52-8-46-34-0
Cost: 491
0-26-0
0-6-33-63-23-56-24-51-0
0-58-39-55-25-32-40-17-0
0-4-27-52-8-46-34-0
0-53-59-54-57-60-37-29-0
0-30-28-61-64-22-62-2-0
Cost: 491
0-29-37-60-57-54-59-53-0
0-51-24-56-23-63-33-6-0
0-2-62-22-64-61-28-30-0
0-4-27-52-8-46-34-0
0-17-40-32-25-55-39-58-0
0-26-0
Cost: 491
0-29-37-60-57-54-59-53-0
0-51-24-56-23-63-33-6-0
0-2-62-22-64-61-28-30-0
0-4-27-52-8-46-34-0
0-17-40-32-25-55-39-58-0
0-26-0
Cost: 491
0-29-37-60-57-54-59-53-0
0-51-24-56-23-63-33-6-0
0-2-62-22-64-61-28-30-0
0-4-27-52-8-46-34-0
0-17-40-32-25-55-39-58-0
0-26-0
Cost: 491
0-29-37-60-57-54-59-53-0
0-51-24-56-23-63-33-6-0
0-2-62-22-64-61-28-30-0
0-4-27-52-8-46-34-0
0-17-40-32-25-55-39-58-0
0-26-0
Cost: 491
0-26-0
0-51-24-56-23-63-33-6-0
0-34-46-8-52-27-4-0
0-58-39-55-25-32-40-17-0
0-2-62-22-64-61-28-30-0
0-53-59-54-57-60-37-29-0
Cost: 491
0-26-0
0-51-24-56-23-63-33-6-0
0-34-46-8-52-27-4-0
0-58-39-55-25-32-40-17-0
0-2-62-22-64-61-28-30-0
0-53-59-54-57-60-37-29-0
Cost: 491
0-26-0
0-51-24-56-23-63-33-6-0
0-34-46-8-52-27-4-0
0-58-39-55-25-32-40-17-0
0-2-62-22-64-61-28-30-0
0-53-59-54-57-60-37-29-0
Cost: 491
0-34-46-8-52-27-4-0
0-51-24-56-23-63-33-6-0
0-53-59-54-57-60-37-29-0
0-26-0
0-58-39-55-25-32-40-17-0
0-2-62-22-64-61-28-30-0
Cost: 491
0-26-0
0-51-24-56-23-63-33-6-0
0-34-46-8-52-27-4-0
0-58-39-55-25-32-40-17-0
0-2-62-22-64-61-28-30-0
0-53-59-54-57-60-37-29-0
Cost: 491
0-26-0
0-51-24-56-23-63-33-6-0
0-34-46-8-52-27-4-0
0-58-39-55-25-32-40-17-0
0-2-62-22-64-61-28-30-0
0-53-59-54-57-60-37-29-0
Cost: 491
0-26-0
0-51-24-56-23-63-33-6-0
0-34-46-8-52-27-4-0
0-58-39-55-25-32-40-17-0
0-2-62-22-64-61-28-30-0
0-53-59-54-57-60-37-29-0
Cost: 491
0-26-0
0-29-37-60-57-54-59-53-0
0-6-33-63-23-56-24-51-0
0-30-28-61-64-22-62-2-0
0-17-40-32-25-55-39-58-0
0-4-27-52-8-46-34-0
Cost: 491
0-26-0
0-17-40-32-25-55-39-58-0
0-6-33-63-23-56-24-51-0
0-29-37-60-57-54-59-53-0
0-34-46-8-52-27-4-0
0-2-62-22-64-61-28-30-0
Cost: 491
0-26-0
0-17-40-32-25-55-39-58-0
0-6-33-63-23-56-24-51-0
0-29-37-60-57-54-59-53-0
0-34-46-8-52-27-4-0
0-2-62-22-64-61-28-30-0
Cost: 491
0-29-37-60-57-54-59-53-0
0-2-62-22-64-61-28-30-0
0-4-27-52-8-46-34-0
0-58-39-55-25-32-40-17-0
0-6-33-63-23-56-24-51-0
0-26-0
Cost: 491
0-29-37-60-57-54-59-53-0
0-2-62-22-64-61-28-30-0
0-4-27-52-8-46-34-0
0-58-39-55-25-32-40-17-0
0-6-33-63-23-56-24-51-0
0-26-0
Cost: 491
0-4-27-52-8-46-34-0
0-51-24-56-23-63-33-6-0
0-17-40-32-25-55-39-58-0
0-26-0
0-2-62-22-64-61-28-30-0
0-53-59-54-57-60-37-29-0
Cost: 491
0-29-37-60-57-54-59-53-0
0-2-62-22-64-61-28-30-0
0-4-27-52-8-46-34-0
0-58-39-55-25-32-40-17-0
0-6-33-63-23-56-24-51-0
0-26-0
Cost: 491
0-26-0
0-29-37-60-57-54-59-53-0
0-6-33-63-23-56-24-51-0
0-30-28-61-64-22-62-2-0
0-17-40-32-25-55-39-58-0
0-4-27-52-8-46-34-0
Cost: 491
0-26-0
0-17-40-32-25-55-39-58-0
0-6-33-63-23-56-24-51-0
0-29-37-60-57-54-59-53-0
0-34-46-8-52-27-4-0
0-2-62-22-64-61-28-30-0
Cost: 491
0-17-40-32-25-55-39-58-0
0-2-62-22-64-61-28-30-0
0-51-24-56-23-63-33-6-0
0-29-37-60-57-54-59-53-0
0-26-0
0-4-27-52-8-46-34-0
Cost: 491
0-17-40-32-25-55-39-58-0
0-29-37-60-57-54-59-53-0
0-51-24-56-23-63-33-6-0
0-26-0
0-4-27-52-8-46-34-0
0-30-28-61-64-22-62-2-0
Cost: 493
0-34-46-35-59-53-7-0
0-51-24-56-23-63-33-6-0
0-30-28-61-64-22-62-2-0
0-26-58-39-55-25-32-40-0
0-29-37-60-20-57-54-52-0
0-4-0
Cost: 491
0-6-33-63-23-56-24-51-0
0-30-28-61-64-22-62-2-0
0-17-40-32-25-55-39-58-0
0-26-0
0-34-46-8-52-27-4-0
0-29-37-60-57-54-59-53-0
Cost: 491
0-17-40-32-25-55-39-58-0
0-29-37-60-57-54-59-53-0
0-2-62-22-64-61-28-30-0
0-26-0
0-4-27-52-8-46-34-0
0-6-33-63-23-56-24-51-0
